NAME : local_4
TYPE : ATSP
DIMENSION : 20
EDGE_WEIGHT_TYPE : EXPLICIT
EDGE_WEIGHT_FORMAT : FULL_MATRIX
EDGE_WEIGHT_SECTION
0 542 949 833 10000000 10000000 10000000 10000000 10000000 980 10000000 10000000 10000000 1053 737 10000000 855 675 10000000 10000000 
0 0 436 368 10000000 10000000 10000000 10000000 725 10000000 958 10000000 10000000 10000000 203 10000000 10000000 909 10000000 531 
0 436 0 264 10000000 10000000 10000000 10000000 674 10000000 552 987 10000000 10000000 248 10000000 10000000 10000000 10000000 291 
0 368 264 0 10000000 808 10000000 10000000 438 10000000 701 10000000 10000000 10000000 287 10000000 10000000 950 10000000 535 
0 10000000 10000000 10000000 0 10000000 817 426 10000000 402 10000000 682 622 529 10000000 10000000 979 10000000 879 10000000 
0 10000000 10000000 808 10000000 0 10000000 10000000 373 10000000 10000000 10000000 10000000 10000000 10000000 10000000 10000000 818 10000000 10000000 
0 10000000 10000000 10000000 817 10000000 0 813 10000000 668 10000000 488 256 356 10000000 211 567 10000000 10000000 10000000 
0 10000000 10000000 10000000 426 10000000 813 0 10000000 732 821 434 558 692 10000000 943 10000000 10000000 589 10000000 
0 725 674 438 10000000 373 10000000 10000000 0 10000000 903 10000000 10000000 10000000 715 10000000 10000000 821 10000000 963 
0 10000000 10000000 10000000 402 10000000 668 732 10000000 0 10000000 776 596 314 10000000 876 616 832 10000000 10000000 
0 958 552 701 10000000 10000000 10000000 821 903 10000000 0 723 1000 10000000 790 10000000 10000000 10000000 830 654 
0 10000000 981 10000000 682 10000000 488 434 10000000 776 723 0 273 567 10000000 552 989 10000000 924 1201 
0 10000000 10000000 10000000 622 10000000 256 558 10000000 596 1016 273 0 326 10000000 402 735 10000000 10000000 10000000 
0 10000000 10000000 10000000 529 10000000 356 692 10000000 314 10000000 567 326 0 10000000 565 497 10000000 10000000 10000000 
0 203 248 287 10000000 10000000 10000000 10000000 715 10000000 790 10000000 10000000 10000000 0 10000000 10000000 10000000 10000000 349 
0 10000000 10000000 10000000 10000000 10000000 211 943 10000000 876 10000000 552 402 565 10000000 0 691 10000000 10000000 10000000 
0 10000000 10000000 10000000 979 10000000 567 10000000 10000000 616 10000000 989 735 497 10000000 691 0 10000000 10000000 10000000 
0 909 10000000 950 10000000 818 10000000 10000000 821 832 10000000 10000000 10000000 10000000 10000000 10000000 10000000 0 10000000 10000000 
0 10000000 10000000 10000000 879 10000000 10000000 589 10000000 10000000 830 924 10000000 10000000 10000000 10000000 10000000 10000000 0 10000000 
0 10000000 10000000 10000000 10000000 10000000 10000000 10000000 10000000 10000000 10000000 10000000 10000000 10000000 10000000 10000000 10000000 10000000 10000000 0 
EOF